33D32945 STP File, STP Format Version 1.0

SECTION Comment
Name "wrp3-15-5s"
Creator "Bernd Zey"
Problem "Stochastic Steiner Tree Problem"
# Stochastic Steiner tree problem instance, base file: wrp3-15.stp
# weight-scaling on, factor=0.010000 (for "big-M" edges)
# parameters:
# distribution=equal
# selectRootRandomly=0
# probabilityTerminal=33
# probabilityNonTerminal=5
# 2nd stage edge-costs in [1.1000c_e, 1.3000c_e]
END

SECTION Graph
Nodes 138
Edges 257
Scenarios 5
Root 124
E 1 6 7
E 1 121 1
E 1 122 1
E 1 123 6
E 2 123 5
E 3 121 6
E 3 123 1
E 4 122 6
E 4 123 1
E 5 10 7
E 5 116 1
E 5 117 1
E 5 118 5
E 6 118 6
E 6 119 1
E 6 120 1
E 7 116 5
E 7 118 1
E 7 119 6
E 8 117 5
E 8 118 1
E 8 120 6
E 9 14 7
E 9 111 1
E 9 112 1
E 9 113 6
E 10 113 5
E 10 114 1
E 10 115 1
E 11 111 6
E 11 113 1
E 11 114 5
E 12 112 6
E 12 113 1
E 12 115 5
E 13 18 7
E 13 106 1
E 13 107 1
E 13 108 5
E 14 108 6
E 14 109 1
E 14 110 1
E 15 106 5
E 15 108 1
E 15 109 6
E 16 107 5
E 16 108 1
E 16 110 6
E 17 22 7
E 17 101 1
E 17 102 1
E 17 103 6
E 18 103 5
E 18 104 1
E 18 105 1
E 19 101 6
E 19 103 1
E 19 104 5
E 20 102 6
E 20 103 1
E 20 105 5
E 21 26 7
E 21 96 1
E 21 97 1
E 21 98 5
E 22 98 6
E 22 99 1
E 22 100 1
E 23 96 5
E 23 98 1
E 23 99 6
E 24 97 5
E 24 98 1
E 24 100 6
E 25 30 7
E 25 91 1
E 25 92 1
E 25 93 6
E 26 93 5
E 26 94 1
E 26 95 1
E 27 91 6
E 27 93 1
E 27 94 5
E 28 92 6
E 28 93 1
E 28 95 5
E 29 34 7
E 29 86 1
E 29 87 1
E 29 88 5
E 30 88 6
E 30 89 1
E 30 90 1
E 31 86 5
E 31 88 1
E 31 89 6
E 32 87 5
E 32 88 1
E 32 90 6
E 33 38 7
E 33 81 1
E 33 82 1
E 33 83 6
E 34 83 5
E 34 84 1
E 34 85 1
E 35 81 6
E 35 83 1
E 35 84 5
E 36 82 6
E 36 83 1
E 36 85 5
E 37 42 7
E 37 76 1
E 37 77 1
E 37 78 5
E 38 78 6
E 38 79 1
E 38 80 1
E 39 76 5
E 39 78 1
E 39 79 6
E 40 77 5
E 40 78 1
E 40 80 6
E 41 46 7
E 41 71 1
E 41 72 1
E 41 73 6
E 42 73 5
E 42 74 1
E 42 75 1
E 43 71 6
E 43 73 1
E 43 74 5
E 44 72 6
E 44 73 1
E 44 75 5
E 45 50 7
E 45 66 1
E 45 67 1
E 45 68 5
E 46 68 6
E 46 69 1
E 46 70 1
E 47 66 5
E 47 68 1
E 47 69 6
E 48 67 5
E 48 68 1
E 48 70 6
E 49 54 7
E 49 61 1
E 49 62 1
E 49 63 6
E 50 63 5
E 50 64 1
E 50 65 1
E 51 61 6
E 51 63 1
E 51 64 5
E 52 62 6
E 52 63 1
E 52 65 5
E 53 58 5
E 54 58 6
E 54 59 1
E 54 60 1
E 55 58 1
E 55 59 6
E 56 58 1
E 56 60 6
E 57 67 198
E 59 61 7
E 60 62 7
E 64 66 7
E 65 67 7
E 69 71 7
E 70 72 7
E 74 76 7
E 75 77 7
E 79 81 7
E 80 82 7
E 84 86 7
E 85 87 7
E 89 91 7
E 90 92 7
E 94 96 7
E 95 97 7
E 99 101 7
E 100 102 7
E 104 106 7
E 105 107 7
E 109 111 7
E 110 112 7
E 114 116 7
E 115 117 7
E 119 121 7
E 120 122 7
E 1 124 1000
E 2 124 1000
E 3 124 1000
E 4 124 1000
E 5 125 1000
E 6 125 1000
E 7 125 1000
E 8 125 1000
E 9 126 1000
E 10 126 1000
E 11 126 1000
E 12 126 1000
E 13 127 1000
E 14 127 1000
E 15 127 1000
E 16 127 1000
E 17 128 1000
E 18 128 1000
E 19 128 1000
E 20 128 1000
E 21 129 1000
E 22 129 1000
E 23 129 1000
E 24 129 1000
E 25 130 1000
E 26 130 1000
E 27 130 1000
E 28 130 1000
E 29 131 1000
E 30 131 1000
E 31 131 1000
E 32 131 1000
E 33 132 1000
E 34 132 1000
E 35 132 1000
E 36 132 1000
E 37 133 1000
E 38 133 1000
E 39 133 1000
E 40 133 1000
E 41 134 1000
E 42 134 1000
E 43 134 1000
E 44 134 1000
E 45 135 1000
E 46 135 1000
E 47 135 1000
E 48 135 1000
E 49 136 1000
E 50 136 1000
E 51 136 1000
E 52 136 1000
E 53 137 1000
E 54 137 1000
E 55 137 1000
E 56 137 1000
E 57 138 1000
END

SECTION StochasticProbabilities
SP 0.14820 0.18520 0.25930 0.27770 0.12960
END

SECTION StochasticWeights
SE 9 8 8 8 8 
SE 2 2 2 2 2 
SE 2 2 2 2 2 
SE 7 7 7 7 7 
SE 6 6 6 6 6 
SE 7 7 7 7 7 
SE 2 2 2 2 2 
SE 7 7 7 7 7 
SE 2 2 2 2 2 
SE 8 8 8 8 9 
SE 2 2 2 2 2 
SE 2 2 2 2 2 
SE 6 6 6 6 6 
SE 7 7 7 7 7 
SE 2 2 2 2 2 
SE 2 2 2 2 2 
SE 6 6 6 6 6 
SE 2 2 2 2 2 
SE 7 7 7 7 7 
SE 6 6 6 6 6 
SE 2 2 2 2 2 
SE 7 7 7 7 7 
SE 8 8 8 9 8 
SE 2 2 2 2 2 
SE 2 2 2 2 2 
SE 7 7 7 7 7 
SE 6 6 6 6 6 
SE 2 2 2 2 2 
SE 2 2 2 2 2 
SE 7 7 7 7 7 
SE 2 2 2 2 2 
SE 6 6 6 6 6 
SE 7 7 7 7 7 
SE 2 2 2 2 2 
SE 6 6 6 6 6 
SE 8 8 9 8 8 
SE 2 2 2 2 2 
SE 2 2 2 2 2 
SE 6 6 6 6 6 
SE 7 7 7 7 7 
SE 2 2 2 2 2 
SE 2 2 2 2 2 
SE 6 6 6 6 6 
SE 2 2 2 2 2 
SE 7 7 7 7 7 
SE 6 6 6 6 6 
SE 2 2 2 2 2 
SE 7 7 7 7 7 
SE 8 8 9 8 8 
SE 2 2 2 2 2 
SE 2 2 2 2 2 
SE 7 7 7 7 7 
SE 6 6 6 6 6 
SE 2 2 2 2 2 
SE 2 2 2 2 2 
SE 7 7 7 7 7 
SE 2 2 2 2 2 
SE 6 6 6 6 6 
SE 7 7 7 7 7 
SE 2 2 2 2 2 
SE 6 6 6 6 6 
SE 9 9 8 9 8 
SE 2 2 2 2 2 
SE 2 2 2 2 2 
SE 6 6 6 6 6 
SE 7 7 7 7 7 
SE 2 2 2 2 2 
SE 2 2 2 2 2 
SE 6 6 6 6 6 
SE 2 2 2 2 2 
SE 7 7 7 7 7 
SE 6 6 6 6 6 
SE 2 2 2 2 2 
SE 7 7 7 7 7 
SE 9 9 8 9 8 
SE 2 2 2 2 2 
SE 2 2 2 2 2 
SE 7 7 7 7 7 
SE 6 6 6 6 6 
SE 2 2 2 2 2 
SE 2 2 2 2 2 
SE 7 7 7 7 7 
SE 2 2 2 2 2 
SE 6 6 6 6 6 
SE 7 7 7 7 7 
SE 2 2 2 2 2 
SE 6 6 6 6 6 
SE 8 8 9 8 8 
SE 2 2 2 2 2 
SE 2 2 2 2 2 
SE 6 6 6 6 6 
SE 7 7 7 7 7 
SE 2 2 2 2 2 
SE 2 2 2 2 2 
SE 6 6 6 6 6 
SE 2 2 2 2 2 
SE 7 7 7 7 7 
SE 6 6 6 6 6 
SE 2 2 2 2 2 
SE 7 7 7 7 7 
SE 9 8 8 9 8 
SE 2 2 2 2 2 
SE 2 2 2 2 2 
SE 7 7 7 7 7 
SE 6 6 6 6 6 
SE 2 2 2 2 2 
SE 2 2 2 2 2 
SE 7 7 7 7 7 
SE 2 2 2 2 2 
SE 6 6 6 6 6 
SE 7 7 7 7 7 
SE 2 2 2 2 2 
SE 6 6 6 6 6 
SE 8 9 8 8 9 
SE 2 2 2 2 2 
SE 2 2 2 2 2 
SE 6 6 6 6 6 
SE 7 7 7 7 7 
SE 2 2 2 2 2 
SE 2 2 2 2 2 
SE 6 6 6 6 6 
SE 2 2 2 2 2 
SE 7 7 7 7 7 
SE 6 6 6 6 6 
SE 2 2 2 2 2 
SE 7 7 7 7 7 
SE 9 8 8 9 8 
SE 2 2 2 2 2 
SE 2 2 2 2 2 
SE 7 7 7 7 7 
SE 6 6 6 6 6 
SE 2 2 2 2 2 
SE 2 2 2 2 2 
SE 7 7 7 7 7 
SE 2 2 2 2 2 
SE 6 6 6 6 6 
SE 7 7 7 7 7 
SE 2 2 2 2 2 
SE 6 6 6 6 6 
SE 9 9 9 9 8 
SE 2 2 2 2 2 
SE 2 2 2 2 2 
SE 6 6 6 6 6 
SE 7 7 7 7 7 
SE 2 2 2 2 2 
SE 2 2 2 2 2 
SE 6 6 6 6 6 
SE 2 2 2 2 2 
SE 7 7 7 7 7 
SE 6 6 6 6 6 
SE 2 2 2 2 2 
SE 7 7 7 7 7 
SE 9 8 8 8 8 
SE 2 2 2 2 2 
SE 2 2 2 2 2 
SE 7 7 7 7 7 
SE 6 6 6 6 6 
SE 2 2 2 2 2 
SE 2 2 2 2 2 
SE 7 7 7 7 7 
SE 2 2 2 2 2 
SE 6 6 6 6 6 
SE 7 7 7 7 7 
SE 2 2 2 2 2 
SE 6 6 6 6 6 
SE 6 6 6 6 6 
SE 7 7 7 7 7 
SE 2 2 2 2 2 
SE 2 2 2 2 2 
SE 2 2 2 2 2 
SE 7 7 7 7 7 
SE 2 2 2 2 2 
SE 7 7 7 7 7 
SE 230 253 254 227 233 
SE 8 9 8 8 8 
SE 8 8 9 8 9 
SE 8 8 9 8 8 
SE 8 9 9 8 8 
SE 8 9 8 8 8 
SE 8 8 8 9 9 
SE 9 8 9 9 9 
SE 8 9 8 9 9 
SE 8 8 9 9 9 
SE 8 9 8 8 9 
SE 8 9 8 8 8 
SE 8 8 9 9 8 
SE 8 9 8 8 8 
SE 9 8 8 9 9 
SE 8 9 8 8 9 
SE 8 8 9 8 9 
SE 9 8 8 8 9 
SE 9 8 8 8 9 
SE 9 8 9 9 8 
SE 8 9 8 9 8 
SE 8 9 8 8 9 
SE 8 8 8 8 8 
SE 8 9 9 9 8 
SE 8 9 8 8 9 
SE 8 8 8 8 9 
SE 8 9 9 8 8 
SE 1173 1106 1102 1154 1253 
SE 1224 1220 1171 1244 1245 
SE 1174 1253 1124 1229 1256 
SE 1254 1126 1116 1147 1110 
SE 1103 1298 1164 1131 1261 
SE 1155 1292 1164 1129 1257 
SE 1246 1107 1257 1157 1245 
SE 1288 1183 1145 1202 1119 
SE 1231 1226 1124 1286 1162 
SE 1177 1155 1221 1201 1220 
SE 1253 1103 1222 1159 1280 
SE 1228 1257 1229 1174 1168 
SE 1203 1145 1160 1266 1132 
SE 1277 1215 1179 1222 1292 
SE 1189 1118 1132 1217 1291 
SE 1292 1265 1246 1175 1298 
SE 1287 1100 1152 1281 1187 
SE 1292 1119 1112 1104 1184 
SE 1261 1245 1242 1214 1139 
SE 1141 1252 1167 1251 1205 
SE 1286 1230 1165 1102 1120 
SE 1174 1192 1225 1114 1132 
SE 1259 1211 1157 1146 1295 
SE 1216 1293 1116 1223 1280 
SE 1120 1226 1133 1240 1160 
SE 1109 1149 1174 1203 1130 
SE 1243 1270 1251 1245 1107 
SE 1277 1160 1115 1129 1251 
SE 1159 1230 1168 1199 1132 
SE 1283 1134 1263 1170 1287 
SE 1172 1288 1100 1163 1126 
SE 1232 1236 1170 1253 1236 
SE 1207 1254 1284 1114 1232 
SE 1196 1190 1124 1243 1282 
SE 1135 1213 1136 1251 1246 
SE 1160 1201 1147 1296 1142 
SE 1201 1131 1189 1272 1239 
SE 1282 1220 1293 1258 1190 
SE 1147 1284 1143 1198 1111 
SE 1282 1257 1163 1207 1100 
SE 1108 1226 1164 1158 1260 
SE 1250 1237 1265 1207 1241 
SE 1210 1164 1243 1231 1119 
SE 1212 1271 1224 1123 1292 
SE 1177 1152 1294 1280 1232 
SE 1299 1182 1275 1148 1260 
SE 1203 1186 1119 1148 1240 
SE 1113 1152 1145 1260 1270 
SE 1290 1151 1237 1102 1143 
SE 1113 1281 1261 1263 1279 
SE 1154 1254 1162 1210 1124 
SE 1225 1282 1253 1255 1113 
SE 1187 1122 1185 1227 1262 
SE 1112 1115 1169 1206 1269 
SE 1140 1224 1269 1177 1293 
SE 1157 1248 1168 1166 1121 
SE 1122 1164 1243 1108 1300 
END

SECTION StochasticTerminals
ST 1 0 0 0 0 0 
ST 2 1 0 0 0 0 
ST 3 0 0 0 0 1 
ST 4 0 0 0 0 0 
ST 5 0 0 0 0 0 
ST 6 0 0 0 0 0 
ST 7 0 0 0 0 0 
ST 8 0 0 0 0 0 
ST 9 0 0 0 0 0 
ST 10 0 0 0 0 0 
ST 11 0 0 0 0 0 
ST 12 0 0 0 0 0 
ST 13 0 0 0 0 0 
ST 14 0 0 0 0 1 
ST 15 0 0 0 0 0 
ST 16 0 1 0 0 0 
ST 17 0 0 0 0 0 
ST 18 0 0 0 0 0 
ST 19 0 0 0 0 0 
ST 20 0 0 0 0 0 
ST 21 0 0 0 0 0 
ST 22 0 0 0 0 0 
ST 23 0 0 0 0 0 
ST 24 0 0 0 0 1 
ST 25 0 0 0 0 1 
ST 26 0 0 0 1 0 
ST 27 0 0 0 0 0 
ST 28 0 0 0 0 0 
ST 29 0 1 0 0 0 
ST 30 0 0 0 0 0 
ST 31 0 0 0 0 0 
ST 32 0 0 0 0 0 
ST 33 0 0 0 0 0 
ST 34 0 0 0 0 0 
ST 35 0 0 0 0 0 
ST 36 0 0 0 0 0 
ST 37 0 0 1 1 0 
ST 38 0 0 0 0 0 
ST 39 0 0 0 0 0 
ST 40 0 0 0 0 0 
ST 41 0 0 0 0 0 
ST 42 0 0 0 0 0 
ST 43 0 0 0 0 0 
ST 44 0 0 0 0 0 
ST 45 0 0 0 0 0 
ST 46 0 0 0 0 1 
ST 47 0 0 0 0 0 
ST 48 1 0 0 0 0 
ST 49 0 0 0 0 0 
ST 50 0 0 0 0 0 
ST 51 0 0 0 0 0 
ST 52 0 1 0 0 0 
ST 53 0 0 0 0 0 
ST 54 0 0 0 0 0 
ST 55 0 0 0 0 0 
ST 56 0 0 0 0 0 
ST 57 0 0 0 0 0 
ST 58 0 0 0 0 0 
ST 59 1 0 0 0 0 
ST 60 0 0 0 0 0 
ST 61 0 0 0 0 0 
ST 62 0 1 0 0 0 
ST 63 0 0 1 0 0 
ST 64 0 0 0 0 0 
ST 65 0 0 0 0 0 
ST 66 0 0 0 0 0 
ST 67 0 0 0 0 0 
ST 68 0 0 0 0 0 
ST 69 0 0 0 0 0 
ST 70 0 0 0 0 0 
ST 71 0 1 0 0 0 
ST 72 0 0 1 0 0 
ST 73 0 0 0 0 1 
ST 74 0 0 0 0 0 
ST 75 0 0 0 0 0 
ST 76 0 0 0 0 0 
ST 77 0 0 0 0 0 
ST 78 0 0 0 0 0 
ST 79 0 0 0 0 0 
ST 80 0 0 0 0 0 
ST 81 0 0 0 1 0 
ST 82 0 0 0 0 0 
ST 83 0 0 0 0 0 
ST 84 0 0 0 0 0 
ST 85 0 0 1 0 0 
ST 86 0 0 0 0 0 
ST 87 0 0 0 0 0 
ST 88 0 0 0 0 0 
ST 89 0 1 0 0 1 
ST 90 0 0 1 0 0 
ST 91 0 0 0 0 0 
ST 92 0 0 0 0 0 
ST 93 0 0 0 0 0 
ST 94 0 0 0 0 0 
ST 95 1 0 0 0 0 
ST 96 0 0 0 0 0 
ST 97 0 0 0 0 0 
ST 98 0 0 1 0 0 
ST 99 0 0 0 0 1 
ST 100 0 0 0 0 0 
ST 101 0 0 0 0 0 
ST 102 0 0 1 0 0 
ST 103 0 0 0 0 0 
ST 104 0 0 0 0 0 
ST 105 0 0 0 0 0 
ST 106 0 0 0 0 0 
ST 107 0 0 0 0 0 
ST 108 0 0 0 0 0 
ST 109 0 0 0 0 0 
ST 110 0 0 0 0 0 
ST 111 0 0 0 0 0 
ST 112 0 0 0 0 0 
ST 113 0 0 0 0 0 
ST 114 0 0 0 0 0 
ST 115 0 0 0 0 0 
ST 116 0 0 0 0 0 
ST 117 0 0 0 0 0 
ST 118 0 0 0 0 0 
ST 119 0 0 0 0 0 
ST 120 0 0 0 0 0 
ST 121 0 0 0 0 0 
ST 122 0 0 0 0 0 
ST 123 0 0 0 0 0 
ST 124 1 1 1 1 1 
ST 125 0 0 0 0 1 
ST 126 0 0 0 0 0 
ST 127 0 0 0 1 1 
ST 128 0 0 0 0 0 
ST 129 0 1 1 0 1 
ST 130 0 1 1 0 0 
ST 131 0 0 0 1 0 
ST 132 0 1 0 1 0 
ST 133 1 0 0 0 1 
ST 134 0 1 0 1 1 
ST 135 0 1 1 1 0 
ST 136 0 0 0 1 0 
ST 137 1 0 1 1 0 
ST 138 0 1 1 0 1 
END


SECTION Coordinates
DD 1 16200 14392
DD 2 16211 14392
DD 3 16206 14391
DD 4 16206 14393
DD 5 16182 14392
DD 6 16193 14392
DD 7 16187 14391
DD 8 16187 14393
DD 9 16164 14392
DD 10 16175 14392
DD 11 16170 14391
DD 12 16170 14393
DD 13 16146 14392
DD 14 16157 14392
DD 15 16151 14391
DD 16 16151 14393
DD 17 16128 14392
DD 18 16139 14392
DD 19 16134 14391
DD 20 16134 14393
DD 21 16110 14392
DD 22 16121 14392
DD 23 16115 14391
DD 24 16115 14393
DD 25 16092 14392
DD 26 16103 14392
DD 27 16098 14391
DD 28 16098 14393
DD 29 16074 14392
DD 30 16085 14392
DD 31 16079 14391
DD 32 16079 14393
DD 33 16056 14392
DD 34 16067 14392
DD 35 16062 14391
DD 36 16062 14393
DD 37 16038 14392
DD 38 16049 14392
DD 39 16043 14391
DD 40 16043 14393
DD 41 16020 14392
DD 42 16031 14392
DD 43 16026 14391
DD 44 16026 14393
DD 45 16002 14392
DD 46 16013 14392
DD 47 16007 14391
DD 48 16007 14393
DD 49 15984 14392
DD 50 15995 14392
DD 51 15990 14391
DD 52 15990 14393
DD 53 15966 14392
DD 54 15977 14392
DD 55 15971 14391
DD 56 15971 14393
DD 57 16002 14591
DD 58 15971 14392
DD 59 15977 14391
DD 60 15977 14393
DD 61 15984 14391
DD 62 15984 14393
DD 63 15990 14392
DD 64 15995 14391
DD 65 15995 14393
DD 66 16002 14391
DD 67 16002 14393
DD 68 16007 14392
DD 69 16013 14391
DD 70 16013 14393
DD 71 16020 14391
DD 72 16020 14393
DD 73 16026 14392
DD 74 16031 14391
DD 75 16031 14393
DD 76 16038 14391
DD 77 16038 14393
DD 78 16043 14392
DD 79 16049 14391
DD 80 16049 14393
DD 81 16056 14391
DD 82 16056 14393
DD 83 16062 14392
DD 84 16067 14391
DD 85 16067 14393
DD 86 16074 14391
DD 87 16074 14393
DD 88 16079 14392
DD 89 16085 14391
DD 90 16085 14393
DD 91 16092 14391
DD 92 16092 14393
DD 93 16098 14392
DD 94 16103 14391
DD 95 16103 14393
DD 96 16110 14391
DD 97 16110 14393
DD 98 16115 14392
DD 99 16121 14391
DD 100 16121 14393
DD 101 16128 14391
DD 102 16128 14393
DD 103 16134 14392
DD 104 16139 14391
DD 105 16139 14393
DD 106 16146 14391
DD 107 16146 14393
DD 108 16151 14392
DD 109 16157 14391
DD 110 16157 14393
DD 111 16164 14391
DD 112 16164 14393
DD 113 16170 14392
DD 114 16175 14391
DD 115 16175 14393
DD 116 16182 14391
DD 117 16182 14393
DD 118 16187 14392
DD 119 16193 14391
DD 120 16193 14393
DD 121 16200 14391
DD 122 16200 14393
DD 123 16206 14392
DD 124 16200 14392
DD 125 16211 14392
DD 126 16206 14391
DD 127 16206 14393
DD 128 16182 14392
DD 129 16193 14392
DD 130 16187 14391
DD 131 16187 14393
DD 132 16164 14392
DD 133 16175 14392
DD 134 16170 14391
DD 135 16170 14393
DD 136 16146 14392
DD 137 16157 14392
DD 138 16151 14391
END

EOF
